\ENCODING=ISO-8859-1
\Problem name: ilog.cplex

Maximize
 obj: 628 x(0)#0 + 988 x(1)#1 + 368 x(2)#2 + 699 x(3)#3 + 686 x(4)#4
      + 906 x(5)#5 + 633 x(6)#6 + 746 x(7)#7 + 880 x(8)#8 + 711 x(9)#9
      + 711 x(10)#10 + 943 x(11)#11 + 966 x(12)#12 + 1098 x(13)#13
      + 595 x(14)#14 + 597 x(15)#15 + 307 x(16)#16 + 412 x(17)#17
      + 1005 x(18)#18 + 795 x(19)#19 + 857 x(20)#20 + 862 x(21)#21
      + 768 x(22)#22 + 902 x(23)#23 + 664 x(24)#24 + 705 x(25)#25
      + 570 x(26)#26 + 351 x(27)#27 + 775 x(28)#28 + 950 x(29)#29
      + 1092 x(30)#30 + 736 x(31)#31 + 832 x(32)#32 + 802 x(33)#33
      + 280 x(34)#34 + 995 x(35)#35 + 492 x(36)#36 + 821 x(37)#37
      + 1073 x(38)#38 + 400 x(39)#39 + 725 x(40)#40 + 627 x(41)#41
      + 577 x(42)#42 + 909 x(43)#43 + 557 x(44)#44 + 651 x(45)#45
      + 705 x(46)#46 + 787 x(47)#47 + 606 x(48)#48 + 1236 x(49)#49
      + 672 x(50)#50 + 515 x(51)#51 + 837 x(52)#52 + 655 x(53)#53
      + 578 x(54)#54 + 452 x(55)#55 + 777 x(56)#56 + 918 x(57)#57
      + 933 x(58)#58 + 1004 x(59)#59 + 821 x(60)#60 + 688 x(61)#61
      + 818 x(62)#62 + 776 x(63)#63 + 436 x(64)#64 + 1181 x(65)#65
      + 814 x(66)#66 + 340 x(67)#67 + 817 x(68)#68 + 881 x(69)#69
      + 455 x(70)#70 + 819 x(71)#71 + 1228 x(72)#72 + 1079 x(73)#73
      + 512 x(74)#74 + 1061 x(75)#75 + 638 x(76)#76 + 686 x(77)#77
      + 414 x(78)#78 + 699 x(79)#79 + 907 x(80)#80 + 784 x(81)#81
      + 743 x(82)#82 + 920 x(83)#83 + 603 x(84)#84 + 875 x(85)#85
      + 854 x(86)#86 + 1043 x(87)#87 + 911 x(88)#88 + 718 x(89)#89
      + 881 x(90)#90 + 815 x(91)#91 + 827 x(92)#92 + 895 x(93)#93
      + 641 x(94)#94 + 1134 x(95)#95 + 699 x(96)#96 + 621 x(97)#97
      + 828 x(98)#98 + 1063 x(99)#99 + 908 x(100)#100 + 651 x(101)#101
      + 859 x(102)#102 + 661 x(103)#103 + 653 x(104)#104 + 484 x(105)#105
      + 789 x(106)#106 + 888 x(107)#107 + 709 x(108)#108 + 976 x(109)#109
      + 948 x(110)#110 + 794 x(111)#111 + 615 x(112)#112 + 893 x(113)#113
      + 870 x(114)#114 + 509 x(115)#115 + 949 x(116)#116 + 804 x(117)#117
      + 595 x(118)#118 + 979 x(119)#119 + 576 x(120)#120 + 510 x(121)#121
      + 851 x(122)#122 + 1089 x(123)#123 + 804 x(124)#124 + 502 x(125)#125
      + 1107 x(126)#126 + 534 x(127)#127 + 615 x(128)#128 + 922 x(129)#129
      + 443 x(130)#130 + 944 x(131)#131 + 327 x(132)#132 + 637 x(133)#133
      + 628 x(134)#134 + 408 x(135)#135 + 758 x(136)#136 + 1009 x(137)#137
      + 982 x(138)#138 + 803 x(139)#139 + 1219 x(140)#140 + 773 x(141)#141
      + 510 x(142)#142 + 776 x(143)#143 + 752 x(144)#144 + 949 x(145)#145
      + 847 x(146)#146 + 611 x(147)#147 + 473 x(148)#148 + 437 x(149)#149
      + 991 x(150)#150 + 963 x(151)#151 + 708 x(152)#152 + 708 x(153)#153
      + 1071 x(154)#154 + 614 x(155)#155 + 317 x(156)#156 + 652 x(157)#157
      + 733 x(158)#158 + 828 x(159)#159 + 683 x(160)#160 + 528 x(161)#161
      + 658 x(162)#162 + 668 x(163)#163 + 809 x(164)#164 + 754 x(165)#165
      + 1077 x(166)#166 + 958 x(167)#167 + 618 x(168)#168 + 781 x(169)#169
      + 891 x(170)#170 + 693 x(171)#171 + 490 x(172)#172 + 619 x(173)#173
      + 704 x(174)#174 + 1095 x(175)#175 + 804 x(176)#176 + 626 x(177)#177
      + 394 x(178)#178 + 651 x(179)#179 + 807 x(180)#180 + 1050 x(181)#181
      + 816 x(182)#182 + 581 x(183)#183 + 461 x(184)#184 + 377 x(185)#185
      + 992 x(186)#186 + 678 x(187)#187 + 827 x(188)#188 + 916 x(189)#189
      + 638 x(190)#190 + 739 x(191)#191 + 365 x(192)#192 + 802 x(193)#193
      + 1030 x(194)#194 + 1094 x(195)#195 + 639 x(196)#196 + 913 x(197)#197
      + 685 x(198)#198 + 1023 x(199)#199 + 634 x(200)#200 + 943 x(201)#201
      + 600 x(202)#202 + 681 x(203)#203 + 1094 x(204)#204 + 701 x(205)#205
      + 957 x(206)#206 + 876 x(207)#207 + 351 x(208)#208 + 776 x(209)#209
      + 881 x(210)#210 + 606 x(211)#211 + 578 x(212)#212 + 645 x(213)#213
      + 904 x(214)#214 + 777 x(215)#215 + 729 x(216)#216 + 945 x(217)#217
      + 948 x(218)#218 + 694 x(219)#219 + 1017 x(220)#220 + 1004 x(221)#221
      + 639 x(222)#222 + 990 x(223)#223 + 603 x(224)#224 + 627 x(225)#225
      + 700 x(226)#226 + 617 x(227)#227 + 914 x(228)#228 + 707 x(229)#229
      + 824 x(230)#230 + 965 x(231)#231 + 559 x(232)#232 + 786 x(233)#233
      + 763 x(234)#234 + 387 x(235)#235 + 1158 x(236)#236 + 722 x(237)#237
      + 859 x(238)#238 + 925 x(239)#239 + 852 x(240)#240 + 807 x(241)#241
      + 739 x(242)#242 + 654 x(243)#243 + 1048 x(244)#244 + 885 x(245)#245
      + 447 x(246)#246 + 662 x(247)#247 + 683 x(248)#248 + 790 x(249)#249
Subject To
 c1: 26 x(0)#0 + 573 x(1)#1 + 6 x(2)#2 + 984 x(3)#3 + 260 x(4)#4 + 907 x(5)#5
     + 305 x(6)#6 + 705 x(7)#7 + 744 x(8)#8 + 183 x(9)#9 + 348 x(10)#10
     + 795 x(11)#11 + 431 x(12)#12 + 434 x(13)#13 + 771 x(14)#14 + 229 x(15)#15
     + 147 x(16)#16 + 347 x(17)#17 + 879 x(18)#18 + 168 x(19)#19 + 657 x(20)#20
     + 921 x(21)#21 + 142 x(22)#22 + 695 x(23)#23 + 89 x(24)#24 + 779 x(25)#25
     + 924 x(26)#26 + 590 x(27)#27 + 159 x(28)#28 + 953 x(29)#29 + 967 x(30)#30
     + 725 x(31)#31 + 991 x(32)#32 + 969 x(33)#33 + 30 x(34)#34 + 289 x(35)#35
     + 258 x(36)#36 + 953 x(37)#37 + 487 x(38)#38 + 215 x(39)#39 + 443 x(40)#40
     + 471 x(41)#41 + 162 x(42)#42 + 903 x(43)#43 + 656 x(44)#44 + 338 x(45)#45
     + 962 x(46)#46 + 810 x(47)#47 + 857 x(48)#48 + 559 x(49)#49 + 181 x(50)#50
     + 740 x(51)#51 + 857 x(52)#52 + 514 x(53)#53 + 608 x(54)#54 + 31 x(55)#55
     + 880 x(56)#56 + 539 x(57)#57 + 683 x(58)#58 + 557 x(59)#59 + 261 x(60)#60
     + 684 x(61)#61 + 125 x(62)#62 + 556 x(63)#63 + 243 x(64)#64 + 372 x(65)#65
     + 376 x(66)#66 + 95 x(67)#67 + 298 x(68)#68 + 645 x(69)#69 + 50 x(70)#70
     + 152 x(71)#71 + 899 x(72)#72 + 493 x(73)#73 + 569 x(74)#74 + 895 x(75)#75
     + 424 x(76)#76 + 567 x(77)#77 + 20 x(78)#78 + 73 x(79)#79 + 833 x(80)#80
     + 78 x(81)#81 + 890 x(82)#82 + 945 x(83)#83 + 600 x(84)#84 + 511 x(85)#85
     + 931 x(86)#86 + 727 x(87)#87 + 15 x(88)#88 + 372 x(89)#89 + 48 x(90)#90
     + 843 x(91)#91 + 230 x(92)#92 + 640 x(93)#93 + 851 x(94)#94 + 720 x(95)#95
     + 550 x(96)#96 + 830 x(97)#97 + 589 x(98)#98 + 641 x(99)#99
     + 13 x(100)#100 + 848 x(101)#101 + 684 x(102)#102 + 29 x(103)#103
     + 439 x(104)#104 + 952 x(105)#105 + 545 x(106)#106 + 658 x(107)#107
     + 521 x(108)#108 + 80 x(109)#109 + 587 x(110)#110 + 314 x(111)#111
     + 77 x(112)#112 + x(113)#113 + 685 x(114)#114 + 895 x(115)#115
     + 932 x(116)#116 + 398 x(117)#117 + 48 x(118)#118 + 743 x(119)#119
     + 743 x(120)#120 + 415 x(121)#121 + 744 x(122)#122 + 56 x(123)#123
     + 580 x(124)#124 + 252 x(125)#125 + 648 x(126)#126 + 883 x(127)#127
     + 449 x(128)#128 + 792 x(129)#129 + 21 x(130)#130 + 913 x(131)#131
     + 26 x(132)#132 + 513 x(133)#133 + 499 x(134)#134 + 486 x(135)#135
     + 770 x(136)#136 + 952 x(137)#137 + 873 x(138)#138 + 591 x(139)#139
     + 722 x(140)#140 + 85 x(141)#141 + 261 x(142)#142 + 724 x(143)#143
     + 965 x(144)#144 + 664 x(145)#145 + 127 x(146)#146 + 142 x(147)#147
     + 519 x(148)#148 + 55 x(149)#149 + 623 x(150)#150 + 864 x(151)#151
     + 689 x(152)#152 + 739 x(153)#153 + 686 x(154)#154 + 316 x(155)#155
     + 278 x(156)#156 + 273 x(157)#157 + 749 x(158)#158 + 996 x(159)#159
     + 851 x(160)#160 + 177 x(161)#161 + 208 x(162)#162 + 101 x(163)#163
     + 416 x(164)#164 + 608 x(165)#165 + 711 x(166)#166 + 987 x(167)#167
     + 361 x(168)#168 + 766 x(169)#169 + 522 x(170)#170 + 1000 x(171)#171
     + 955 x(172)#172 + 111 x(173)#173 + 210 x(174)#174 + 857 x(175)#175
     + 175 x(176)#176 + 498 x(177)#177 + 192 x(178)#178 + 286 x(179)#179
     + 320 x(180)#180 + 307 x(181)#181 + 47 x(182)#182 + 767 x(183)#183
     + 244 x(184)#184 + 48 x(185)#185 + 128 x(186)#186 + 951 x(187)#187
     + 284 x(188)#188 + 470 x(189)#189 + 185 x(190)#190 + 675 x(191)#191
     + 204 x(192)#192 + 233 x(193)#193 + 797 x(194)#194 + 607 x(195)#195
     + 185 x(196)#196 + 118 x(197)#197 + 961 x(198)#198 + 892 x(199)#199
     + 293 x(200)#200 + 529 x(201)#201 + 108 x(202)#202 + 235 x(203)#203
     + 909 x(204)#204 + 165 x(205)#205 + 564 x(206)#206 + 856 x(207)#207
     + 156 x(208)#208 + 871 x(209)#209 + 968 x(210)#210 + 63 x(211)#211
     + 143 x(212)#212 + 833 x(213)#213 + 281 x(214)#214 + 959 x(215)#215
     + 640 x(216)#216 + 983 x(217)#217 + 511 x(218)#218 + 33 x(219)#219
     + 943 x(220)#220 + 163 x(221)#221 + 717 x(222)#222 + 591 x(223)#223
     + 28 x(224)#224 + 681 x(225)#225 + 549 x(226)#226 + 109 x(227)#227
     + 253 x(228)#228 + 346 x(229)#229 + 457 x(230)#230 + 617 x(231)#231
     + 719 x(232)#232 + 618 x(233)#233 + 822 x(234)#234 + 89 x(235)#235
     + 654 x(236)#236 + 880 x(237)#237 + 481 x(238)#238 + 689 x(239)#239
     + 269 x(240)#240 + 856 x(241)#241 + 190 x(242)#242 + 25 x(243)#243
     + 789 x(244)#244 + 794 x(245)#245 + 245 x(246)#246 + 535 x(247)#247
     + 181 x(248)#248 + 583 x(249)#249 <= 31737
 c2: 83 x(0)#0 + 74 x(1)#1 + 53 x(2)#2 + 457 x(3)#3 + 905 x(4)#4 + 546 x(5)#5
     + 683 x(6)#6 + 409 x(7)#7 + 175 x(8)#8 + 192 x(9)#9 + 298 x(10)#10
     + 149 x(11)#11 + 367 x(12)#12 + 706 x(13)#13 + 326 x(14)#14 + 40 x(15)#15
     + 41 x(16)#16 + 563 x(17)#17 + 720 x(18)#18 + 367 x(19)#19 + 618 x(20)#20
     + 219 x(21)#21 + 873 x(22)#22 + 620 x(23)#23 + 707 x(24)#24 + 395 x(25)#25
     + 280 x(26)#26 + 205 x(27)#27 + 658 x(28)#28 + 951 x(29)#29 + 476 x(30)#30
     + 825 x(31)#31 + 43 x(32)#32 + 866 x(33)#33 + 176 x(34)#34 + 776 x(35)#35
     + 37 x(36)#36 + 931 x(37)#37 + 834 x(38)#38 + 168 x(39)#39 + 428 x(40)#40
     + 489 x(41)#41 + 386 x(42)#42 + 399 x(43)#43 + 658 x(44)#44 + 526 x(45)#45
     + 642 x(46)#46 + 435 x(47)#47 + 253 x(48)#48 + 935 x(49)#49 + 90 x(50)#50
     + 523 x(51)#51 + 662 x(52)#52 + 136 x(53)#53 + 168 x(54)#54 + 35 x(55)#55
     + 247 x(56)#56 + 375 x(57)#57 + 794 x(58)#58 + 794 x(59)#59 + 433 x(60)#60
     + 791 x(61)#61 + 972 x(62)#62 + 316 x(63)#63 + 704 x(64)#64 + 872 x(65)#65
     + 719 x(66)#66 + 255 x(67)#67 + 128 x(68)#68 + 729 x(69)#69 + 448 x(70)#70
     + 182 x(71)#71 + 780 x(72)#72 + 838 x(73)#73 + 572 x(74)#74 + 982 x(75)#75
     + 27 x(76)#76 + 343 x(77)#77 + 35 x(78)#78 + 148 x(79)#79 + 57 x(80)#80
     + 694 x(81)#81 + 204 x(82)#82 + 331 x(83)#83 + 262 x(84)#84 + 718 x(85)#85
     + 195 x(86)#86 + 911 x(87)#87 + 953 x(88)#88 + 676 x(89)#89 + 962 x(90)#90
     + 914 x(91)#91 + 50 x(92)#92 + 462 x(93)#93 + 420 x(94)#94 + 369 x(95)#95
     + 722 x(96)#96 + 70 x(97)#97 + 619 x(98)#98 + 422 x(99)#99
     + 531 x(100)#100 + 53 x(101)#101 + 868 x(102)#102 + 308 x(103)#103
     + 279 x(104)#104 + 752 x(105)#105 + 832 x(106)#106 + 876 x(107)#107
     + 434 x(108)#108 + 244 x(109)#109 + 410 x(110)#110 + 690 x(111)#111
     + 238 x(112)#112 + 1000 x(113)#113 + 190 x(114)#114 + 255 x(115)#115
     + 634 x(116)#116 + 374 x(117)#117 + 528 x(118)#118 + 149 x(119)#119
     + 82 x(120)#120 + 217 x(121)#121 + 104 x(122)#122 + 628 x(123)#123
     + 485 x(124)#124 + 734 x(125)#125 + 647 x(126)#126 + 927 x(127)#127
     + 937 x(128)#128 + 411 x(129)#129 + 194 x(130)#130 + 750 x(131)#131
     + 22 x(132)#132 + 608 x(133)#133 + 209 x(134)#134 + 801 x(135)#135
     + 852 x(136)#136 + 791 x(137)#137 + 598 x(138)#138 + 305 x(139)#139
     + 870 x(140)#140 + 140 x(141)#141 + 277 x(142)#142 + 206 x(143)#143
     + 924 x(144)#144 + 829 x(145)#145 + 865 x(146)#146 + 616 x(147)#147
     + 186 x(148)#148 + 105 x(149)#149 + 585 x(150)#150 + 127 x(151)#151
     + 2 x(152)#152 + 360 x(153)#153 + 996 x(154)#154 + 89 x(155)#155
     + 209 x(156)#156 + 966 x(157)#157 + 314 x(158)#158 + 103 x(159)#159
     + 68 x(160)#160 + 54 x(161)#161 + 989 x(162)#162 + 566 x(163)#163
     + 944 x(164)#164 + 152 x(165)#165 + 420 x(166)#166 + 390 x(167)#167
     + 612 x(168)#168 + 187 x(169)#169 + 990 x(170)#170 + 812 x(171)#171
     + 56 x(172)#172 + 609 x(173)#173 + 918 x(174)#174 + 776 x(175)#175
     + 354 x(176)#176 + 61 x(177)#177 + 731 x(178)#178 + 213 x(179)#179
     + 661 x(180)#180 + 269 x(181)#181 + 621 x(182)#182 + 388 x(183)#183
     + 264 x(184)#184 + 511 x(185)#185 + 871 x(186)#186 + 464 x(187)#187
     + 959 x(188)#188 + 877 x(189)#189 + 390 x(190)#190 + 176 x(191)#191
     + 411 x(192)#192 + 136 x(193)#193 + 773 x(194)#194 + 446 x(195)#195
     + 602 x(196)#196 + 878 x(197)#197 + 526 x(198)#198 + 898 x(199)#199
     + 15 x(200)#200 + 452 x(201)#201 + 817 x(202)#202 + 725 x(203)#203
     + 976 x(204)#204 + 281 x(205)#205 + 988 x(206)#206 + 646 x(207)#207
     + 490 x(208)#208 + 88 x(209)#209 + 750 x(210)#210 + 399 x(211)#211
     + 228 x(212)#212 + 51 x(213)#213 + 428 x(214)#214 + 573 x(215)#215
     + 997 x(216)#216 + 752 x(217)#217 + 879 x(218)#218 + 474 x(219)#219
     + 966 x(220)#220 + 781 x(221)#221 + 684 x(222)#222 + 594 x(223)#223
     + 984 x(224)#224 + 306 x(225)#225 + 697 x(226)#226 + 287 x(227)#227
     + 868 x(228)#228 + 266 x(229)#229 + 856 x(230)#230 + 853 x(231)#231
     + 397 x(232)#232 + 538 x(233)#233 + 341 x(234)#234 + 389 x(235)#235
     + 877 x(236)#236 + 150 x(237)#237 + 680 x(238)#238 + 698 x(239)#239
     + 561 x(240)#240 + 510 x(241)#241 + 337 x(242)#242 + 78 x(243)#243
     + 622 x(244)#244 + 995 x(245)#245 + 870 x(246)#246 + 329 x(247)#247
     + 745 x(248)#248 + 137 x(249)#249 <= 31304
 c3: 398 x(0)#0 + 622 x(1)#1 + 496 x(2)#2 + 116 x(3)#3 + 771 x(4)#4
     + 742 x(5)#5 + 609 x(6)#6 + 882 x(7)#7 + 905 x(8)#8 + 233 x(9)#9
     + 574 x(10)#10 + 693 x(11)#11 + 809 x(12)#12 + 952 x(13)#13 + 741 x(14)#14
     + 372 x(15)#15 + 284 x(16)#16 + 468 x(17)#17 + 504 x(18)#18 + 566 x(19)#19
     + 24 x(20)#20 + 284 x(21)#21 + 522 x(22)#22 + 438 x(23)#23 + 596 x(24)#24
     + 472 x(25)#25 + 77 x(26)#26 + 541 x(27)#27 + 883 x(28)#28 + 633 x(29)#29
     + 699 x(30)#30 + 3 x(31)#31 + 723 x(32)#32 + 965 x(33)#33 + 539 x(34)#34
     + 147 x(35)#35 + 603 x(36)#36 + 867 x(37)#37 + 759 x(38)#38 + 465 x(39)#39
     + 462 x(40)#40 + 515 x(41)#41 + 47 x(42)#42 + 589 x(43)#43 + 393 x(44)#44
     + 755 x(45)#45 + 911 x(46)#46 + 396 x(47)#47 + 285 x(48)#48 + 872 x(49)#49
     + 633 x(50)#50 + 242 x(51)#51 + 589 x(52)#52 + 851 x(53)#53 + 899 x(54)#54
     + 658 x(55)#55 + 320 x(56)#56 + 519 x(57)#57 + 551 x(58)#58 + 649 x(59)#59
     + 780 x(60)#60 + 700 x(61)#61 + 396 x(62)#62 + 358 x(63)#63 + 606 x(64)#64
     + 806 x(65)#65 + 351 x(66)#66 + 266 x(67)#67 + 436 x(68)#68 + 154 x(69)#69
     + 89 x(70)#70 + 96 x(71)#71 + 886 x(72)#72 + 381 x(73)#73 + 184 x(74)#74
     + 515 x(75)#75 + 152 x(76)#76 + 60 x(77)#77 + 653 x(78)#78 + 953 x(79)#79
     + 441 x(80)#80 + 604 x(81)#81 + 768 x(82)#82 + 947 x(83)#83 + 552 x(84)#84
     + 319 x(85)#85 + 637 x(86)#86 + x(87)#87 + 987 x(88)#88 + 243 x(89)#89
     + 36 x(90)#90 + 479 x(91)#91 + 104 x(92)#92 + 843 x(93)#93 + 252 x(94)#94
     + 722 x(95)#95 + 488 x(96)#96 + 769 x(97)#97 + 990 x(98)#98 + 922 x(99)#99
     + 830 x(100)#100 + 722 x(101)#101 + 65 x(102)#102 + 789 x(103)#103
     + 387 x(104)#104 + 96 x(105)#105 + 840 x(106)#106 + 622 x(107)#107
     + 702 x(108)#108 + 534 x(109)#109 + 589 x(110)#110 + 434 x(111)#111
     + 70 x(112)#112 + 909 x(113)#113 + 212 x(114)#114 + 111 x(115)#115
     + 392 x(116)#116 + 473 x(117)#117 + 328 x(118)#118 + 434 x(119)#119
     + 303 x(120)#120 + 219 x(121)#121 + 558 x(122)#122 + 943 x(123)#123
     + 775 x(124)#124 + 77 x(125)#125 + 867 x(126)#126 + 287 x(127)#127
     + 263 x(128)#128 + 31 x(129)#129 + 470 x(130)#130 + 457 x(131)#131
     + 186 x(132)#132 + 324 x(133)#133 + 101 x(134)#134 + 73 x(135)#135
     + 396 x(136)#136 + 779 x(137)#137 + 904 x(138)#138 + 960 x(139)#139
     + 732 x(140)#140 + 238 x(141)#141 + 224 x(142)#142 + 441 x(143)#143
     + 646 x(144)#144 + 357 x(145)#145 + 230 x(146)#146 + 991 x(147)#147
     + 429 x(148)#148 + 569 x(149)#149 + 371 x(150)#150 + 743 x(151)#151
     + 123 x(152)#152 + 271 x(153)#153 + 99 x(154)#154 + 385 x(155)#155
     + 17 x(156)#156 + 818 x(157)#157 + 184 x(158)#158 + 293 x(159)#159
     + 285 x(160)#160 + 551 x(161)#161 + 71 x(162)#162 + 808 x(163)#163
     + 206 x(164)#164 + 415 x(165)#165 + 189 x(166)#166 + 684 x(167)#167
     + 497 x(168)#168 + 495 x(169)#169 + 224 x(170)#170 + 96 x(171)#171
     + x(172)#172 + 711 x(173)#173 + 477 x(174)#174 + 548 x(175)#175
     + 96 x(176)#176 + 532 x(177)#177 + 349 x(178)#178 + 435 x(179)#179
     + 752 x(180)#180 + 957 x(181)#181 + 887 x(182)#182 + 614 x(183)#183
     + 295 x(184)#184 + 312 x(185)#185 + 675 x(186)#186 + 205 x(187)#187
     + 894 x(188)#188 + 651 x(189)#189 + 796 x(190)#190 + 652 x(191)#191
     + 57 x(192)#192 + 538 x(193)#193 + 107 x(194)#194 + 503 x(195)#195
     + 436 x(196)#196 + 315 x(197)#197 + 739 x(198)#198 + 798 x(199)#199
     + 730 x(200)#200 + 931 x(201)#201 + 984 x(202)#202 + 262 x(203)#203
     + 341 x(204)#204 + 350 x(205)#205 + 846 x(206)#206 + 773 x(207)#207
     + 804 x(208)#208 + 569 x(209)#209 + 899 x(210)#210 + 883 x(211)#211
     + 591 x(212)#212 + 463 x(213)#213 + 339 x(214)#214 + 17 x(215)#215
     + 356 x(216)#216 + 733 x(217)#217 + 568 x(218)#218 + 162 x(219)#219
     + 239 x(220)#220 + 95 x(221)#221 + 406 x(222)#222 + 556 x(223)#223
     + 75 x(224)#224 + 287 x(225)#225 + 616 x(226)#226 + 662 x(227)#227
     + 723 x(228)#228 + 281 x(229)#229 + 268 x(230)#230 + 638 x(231)#231
     + 127 x(232)#232 + 255 x(233)#233 + 559 x(234)#234 + 282 x(235)#235
     + 424 x(236)#236 + 493 x(237)#237 + 9 x(238)#238 + 410 x(239)#239
     + 842 x(240)#240 + 388 x(241)#241 + 933 x(242)#242 + 671 x(243)#243
     + 180 x(244)#244 + 311 x(245)#245 + 305 x(246)#246 + 358 x(247)#247
     + 992 x(248)#248 + 15 x(249)#249 <= 30642
 c4: 784 x(0)#0 + 378 x(1)#1 + 27 x(2)#2 + 535 x(3)#3 + 599 x(4)#4 + 101 x(5)#5
     + 755 x(6)#6 + 111 x(7)#7 + 671 x(8)#8 + 533 x(9)#9 + 756 x(10)#10
     + 504 x(11)#11 + 715 x(12)#12 + 334 x(13)#13 + 105 x(14)#14 + 724 x(15)#15
     + 358 x(16)#16 + 35 x(17)#17 + 458 x(18)#18 + 876 x(19)#19 + 990 x(20)#20
     + 196 x(21)#21 + 506 x(22)#22 + 462 x(23)#23 + 6 x(24)#24 + 190 x(25)#25
     + 358 x(26)#26 + 356 x(27)#27 + 543 x(28)#28 + 558 x(29)#29 + 885 x(30)#30
     + 421 x(31)#31 + 132 x(32)#32 + 564 x(33)#33 + 234 x(34)#34 + 826 x(35)#35
     + 143 x(36)#36 + 663 x(37)#37 + 738 x(38)#38 + 105 x(39)#39 + 71 x(40)#40
     + 187 x(41)#41 + 757 x(42)#42 + 41 x(43)#43 + 359 x(44)#44 + 293 x(45)#45
     + 535 x(46)#46 + 610 x(47)#47 + 52 x(48)#48 + 835 x(49)#49 + 492 x(50)#50
     + 169 x(51)#51 + 230 x(52)#52 + 612 x(53)#53 + 477 x(54)#54 + 46 x(55)#55
     + 700 x(56)#56 + 962 x(57)#57 + 805 x(58)#58 + 391 x(59)#59 + 389 x(60)#60
     + 977 x(61)#61 + 634 x(62)#62 + 464 x(63)#63 + 147 x(64)#64 + 791 x(65)#65
     + 212 x(66)#66 + 689 x(67)#67 + 382 x(68)#68 + 593 x(69)#69 + 47 x(70)#70
     + 917 x(71)#71 + 417 x(72)#72 + 594 x(73)#73 + 560 x(74)#74 + 187 x(75)#75
     + 895 x(76)#76 + 363 x(77)#77 + 281 x(78)#78 + 199 x(79)#79 + 579 x(80)#80
     + 280 x(81)#81 + 108 x(82)#82 + 679 x(83)#83 + 281 x(84)#84 + 112 x(85)#85
     + 426 x(86)#86 + 645 x(87)#87 + 328 x(88)#88 + 98 x(89)#89 + 969 x(90)#90
     + 143 x(91)#91 + 597 x(92)#92 + 720 x(93)#93 + 295 x(94)#94 + 975 x(95)#95
     + 630 x(96)#96 + 493 x(97)#97 + 849 x(98)#98 + 779 x(99)#99
     + 75 x(100)#100 + 453 x(101)#101 + 234 x(102)#102 + 748 x(103)#103
     + 37 x(104)#104 + 9 x(105)#105 + 532 x(106)#106 + 567 x(107)#107
     + 363 x(108)#108 + 903 x(109)#109 + 359 x(110)#110 + 102 x(111)#111
     + 601 x(112)#112 + 100 x(113)#113 + 36 x(114)#114 + 412 x(115)#115
     + 575 x(116)#116 + 129 x(117)#117 + 481 x(118)#118 + 850 x(119)#119
     + 2 x(120)#120 + 70 x(121)#121 + 907 x(122)#122 + 740 x(123)#123
     + 565 x(124)#124 + 865 x(125)#125 + 612 x(126)#126 + 107 x(127)#127
     + 413 x(128)#128 + 924 x(129)#129 + 106 x(130)#130 + 920 x(131)#131
     + 95 x(132)#132 + 778 x(133)#133 + 467 x(134)#134 + 45 x(135)#135
     + 291 x(136)#136 + 583 x(137)#137 + 881 x(138)#138 + 44 x(139)#139
     + 989 x(140)#140 + 483 x(141)#141 + 473 x(142)#142 + 708 x(143)#143
     + 46 x(144)#144 + 845 x(145)#145 + 771 x(146)#146 + 8 x(147)#147
     + 191 x(148)#148 + 71 x(149)#149 + 922 x(150)#150 + 806 x(151)#151
     + 329 x(152)#152 + 941 x(153)#153 + 977 x(154)#154 + 943 x(155)#155
     + 270 x(156)#156 + 237 x(157)#157 + 554 x(158)#158 + 490 x(159)#159
     + 520 x(160)#160 + 469 x(161)#161 + 549 x(162)#162 + 105 x(163)#163
     + 730 x(164)#164 + 847 x(165)#165 + 906 x(166)#166 + 345 x(167)#167
     + 498 x(168)#168 + 62 x(169)#169 + 887 x(170)#170 + 579 x(171)#171
     + 339 x(172)#172 + 877 x(173)#173 + 552 x(174)#174 + 964 x(175)#175
     + 644 x(176)#176 + 964 x(177)#177 + 346 x(178)#178 + 43 x(179)#179
     + 322 x(180)#180 + 554 x(181)#181 + 253 x(182)#182 + 136 x(183)#183
     + 878 x(184)#184 + 369 x(185)#185 + 381 x(186)#186 + 215 x(187)#187
     + 407 x(188)#188 + 332 x(189)#189 + 239 x(190)#190 + 79 x(191)#191
     + 310 x(192)#192 + 337 x(193)#193 + 748 x(194)#194 + 958 x(195)#195
     + 75 x(196)#196 + 382 x(197)#197 + 399 x(198)#198 + 431 x(199)#199
     + 779 x(200)#200 + 548 x(201)#201 + 902 x(202)#202 + 603 x(203)#203
     + 862 x(204)#204 + 375 x(205)#205 + 211 x(206)#206 + 59 x(207)#207
     + 81 x(208)#208 + 729 x(209)#209 + 703 x(210)#210 + 726 x(211)#211
     + 576 x(212)#212 + 938 x(213)#213 + 667 x(214)#214 + 552 x(215)#215
     + 785 x(216)#216 + 368 x(217)#217 + 854 x(218)#218 + 421 x(219)#219
     + 713 x(220)#220 + 693 x(221)#221 + 245 x(222)#222 + 608 x(223)#223
     + 104 x(224)#224 + 862 x(225)#225 + 414 x(226)#226 + 573 x(227)#227
     + 715 x(228)#228 + 381 x(229)#229 + 251 x(230)#230 + 408 x(231)#231
     + 517 x(232)#232 + 739 x(233)#233 + 583 x(234)#234 + 412 x(235)#235
     + 653 x(236)#236 + 703 x(237)#237 + 754 x(238)#238 + 507 x(239)#239
     + 310 x(240)#240 + 237 x(241)#241 + 788 x(242)#242 + 737 x(243)#243
     + 672 x(244)#244 + 326 x(245)#245 + 43 x(246)#246 + 783 x(247)#247
     + 914 x(248)#248 + 852 x(249)#249 <= 30471
 c5: 972 x(0)#0 + 824 x(1)#1 + 108 x(2)#2 + 538 x(3)#3 + 371 x(4)#4
     + 597 x(5)#5 + 253 x(6)#6 + 741 x(7)#7 + 795 x(8)#8 + 145 x(9)#9
     + 274 x(10)#10 + 285 x(11)#11 + 917 x(12)#12 + 627 x(13)#13 + 57 x(14)#14
     + 153 x(15)#15 + 425 x(16)#16 + 7 x(17)#17 + 457 x(18)#18 + 102 x(19)#19
     + 941 x(20)#20 + 604 x(21)#21 + 314 x(22)#22 + 14 x(23)#23 + 152 x(24)#24
     + 83 x(25)#25 + 212 x(26)#26 + 32 x(27)#27 + 485 x(28)#28 + 340 x(29)#29
     + 392 x(30)#30 + 483 x(31)#31 + 152 x(32)#32 + 392 x(33)#33 + 392 x(34)#34
     + 594 x(35)#35 + 338 x(36)#36 + 119 x(37)#37 + 607 x(38)#38 + 726 x(39)#39
     + 444 x(40)#40 + 567 x(41)#41 + 328 x(42)#42 + 278 x(43)#43 + 613 x(44)#44
     + 529 x(45)#45 + 311 x(46)#46 + 208 x(47)#47 + 228 x(48)#48 + 555 x(49)#49
     + 130 x(50)#50 + 21 x(51)#51 + 452 x(52)#52 + 429 x(53)#53 + 574 x(54)#54
     + 109 x(55)#55 + 115 x(56)#56 + 780 x(57)#57 + 673 x(58)#58 + 575 x(59)#59
     + 249 x(60)#60 + 56 x(61)#61 + 380 x(62)#62 + 894 x(63)#63 + 344 x(64)#64
     + 958 x(65)#65 + 476 x(66)#66 + 29 x(67)#67 + 552 x(68)#68 + 261 x(69)#69
     + 508 x(70)#70 + 465 x(71)#71 + 751 x(72)#72 + 673 x(73)#73 + 28 x(74)#74
     + 985 x(75)#75 + 939 x(76)#76 + 569 x(77)#77 + 151 x(78)#78 + 678 x(79)#79
     + 864 x(80)#80 + 89 x(81)#81 + 408 x(82)#82 + 882 x(83)#83 + 960 x(84)#84
     + 614 x(85)#85 + 66 x(86)#86 + 466 x(87)#87 + 373 x(88)#88 + 941 x(89)#89
     + 186 x(90)#90 + 219 x(91)#91 + 815 x(92)#92 + 778 x(93)#93 + 229 x(94)#94
     + 469 x(95)#95 + 342 x(96)#96 + 58 x(97)#97 + 457 x(98)#98 + 522 x(99)#99
     + 647 x(100)#100 + 199 x(101)#101 + 332 x(102)#102 + 430 x(103)#103
     + 950 x(104)#104 + 391 x(105)#105 + 711 x(106)#106 + 308 x(107)#107
     + 720 x(108)#108 + 987 x(109)#109 + 480 x(110)#110 + 860 x(111)#111
     + 45 x(112)#112 + 344 x(113)#113 + 906 x(114)#114 + 86 x(115)#115
     + 519 x(116)#116 + 576 x(117)#117 + 798 x(118)#118 + 621 x(119)#119
     + 694 x(120)#120 + 613 x(121)#121 + 989 x(122)#122 + 971 x(123)#123
     + 352 x(124)#124 + 139 x(125)#125 + 628 x(126)#126 + 257 x(127)#127
     + 241 x(128)#128 + 627 x(129)#129 + 238 x(130)#130 + 963 x(131)#131
     + 941 x(132)#132 + 590 x(133)#133 + 953 x(134)#134 + 453 x(135)#135
     + 808 x(136)#136 + 120 x(137)#137 + 288 x(138)#138 + 592 x(139)#139
     + 466 x(140)#140 + 576 x(141)#141 + 467 x(142)#142 + 250 x(143)#143
     + 20 x(144)#144 + 225 x(145)#145 + 657 x(146)#146 + 9 x(147)#147
     + 947 x(148)#148 + 746 x(149)#149 + 505 x(150)#150 + 933 x(151)#151
     + 615 x(152)#152 + 781 x(153)#153 + 739 x(154)#154 + 49 x(155)#155
     + 482 x(156)#156 + 322 x(157)#157 + 457 x(158)#158 + 128 x(159)#159
     + 745 x(160)#160 + x(161)#161 + 908 x(162)#162 + 214 x(163)#163
     + 908 x(164)#164 + 642 x(165)#165 + 737 x(166)#166 + 494 x(167)#167
     + 933 x(168)#168 + 660 x(169)#169 + 624 x(170)#170 + 157 x(171)#171
     + 915 x(172)#172 + 143 x(173)#173 + 240 x(174)#174 + 400 x(175)#175
     + 644 x(176)#176 + 267 x(177)#177 + 36 x(178)#178 + 539 x(179)#179
     + 211 x(180)#180 + 877 x(181)#181 + 956 x(182)#182 + 428 x(183)#183
     + 279 x(184)#184 + 292 x(185)#185 + 435 x(186)#186 + 875 x(187)#187
     + 519 x(188)#188 + 295 x(189)#189 + 164 x(190)#190 + 315 x(191)#191
     + 326 x(192)#192 + 685 x(193)#193 + 667 x(194)#194 + 885 x(195)#195
     + 779 x(196)#196 + 650 x(197)#197 + 84 x(198)#198 + 568 x(199)#199
     + 238 x(200)#200 + 212 x(201)#201 + 159 x(202)#202 + 603 x(203)#203
     + 954 x(204)#204 + 817 x(205)#205 + 263 x(206)#206 + 454 x(207)#207
     + 76 x(208)#208 + 710 x(209)#209 + 69 x(210)#210 + 468 x(211)#211
     + 968 x(212)#212 + 504 x(213)#213 + 414 x(214)#214 + 417 x(215)#215
     + 134 x(216)#216 + 467 x(217)#217 + 495 x(218)#218 + 387 x(219)#219
     + 694 x(220)#220 + 811 x(221)#221 + 388 x(222)#222 + 410 x(223)#223
     + 65 x(224)#224 + 886 x(225)#225 + 363 x(226)#226 + 22 x(227)#227
     + 707 x(228)#228 + 390 x(229)#229 + 892 x(230)#230 + 821 x(231)#231
     + 473 x(232)#232 + 911 x(233)#233 + 213 x(234)#234 + 666 x(235)#235
     + 927 x(236)#236 + 509 x(237)#237 + 191 x(238)#238 + 916 x(239)#239
     + 15 x(240)#240 + 659 x(241)#241 + 658 x(242)#242 + 636 x(243)#243
     + 864 x(244)#244 + 179 x(245)#245 + 408 x(246)#246 + 340 x(247)#247
     + 236 x(248)#248 + 489 x(249)#249 <= 30102
Bounds
 0 <= x(0)#0 <= 1
 0 <= x(1)#1 <= 1
 0 <= x(2)#2 <= 1
 0 <= x(3)#3 <= 1
 0 <= x(4)#4 <= 1
 0 <= x(5)#5 <= 1
 0 <= x(6)#6 <= 1
 0 <= x(7)#7 <= 1
 0 <= x(8)#8 <= 1
 0 <= x(9)#9 <= 1
 0 <= x(10)#10 <= 1
 0 <= x(11)#11 <= 1
 0 <= x(12)#12 <= 1
 0 <= x(13)#13 <= 1
 0 <= x(14)#14 <= 1
 0 <= x(15)#15 <= 1
 0 <= x(16)#16 <= 1
 0 <= x(17)#17 <= 1
 0 <= x(18)#18 <= 1
 0 <= x(19)#19 <= 1
 0 <= x(20)#20 <= 1
 0 <= x(21)#21 <= 1
 0 <= x(22)#22 <= 1
 0 <= x(23)#23 <= 1
 0 <= x(24)#24 <= 1
 0 <= x(25)#25 <= 1
 0 <= x(26)#26 <= 1
 0 <= x(27)#27 <= 1
 0 <= x(28)#28 <= 1
 0 <= x(29)#29 <= 1
 0 <= x(30)#30 <= 1
 0 <= x(31)#31 <= 1
 0 <= x(32)#32 <= 1
 0 <= x(33)#33 <= 1
 0 <= x(34)#34 <= 1
 0 <= x(35)#35 <= 1
 0 <= x(36)#36 <= 1
 0 <= x(37)#37 <= 1
 0 <= x(38)#38 <= 1
 0 <= x(39)#39 <= 1
 0 <= x(40)#40 <= 1
 0 <= x(41)#41 <= 1
 0 <= x(42)#42 <= 1
 0 <= x(43)#43 <= 1
 0 <= x(44)#44 <= 1
 0 <= x(45)#45 <= 1
 0 <= x(46)#46 <= 1
 0 <= x(47)#47 <= 1
 0 <= x(48)#48 <= 1
 0 <= x(49)#49 <= 1
 0 <= x(50)#50 <= 1
 0 <= x(51)#51 <= 1
 0 <= x(52)#52 <= 1
 0 <= x(53)#53 <= 1
 0 <= x(54)#54 <= 1
 0 <= x(55)#55 <= 1
 0 <= x(56)#56 <= 1
 0 <= x(57)#57 <= 1
 0 <= x(58)#58 <= 1
 0 <= x(59)#59 <= 1
 0 <= x(60)#60 <= 1
 0 <= x(61)#61 <= 1
 0 <= x(62)#62 <= 1
 0 <= x(63)#63 <= 1
 0 <= x(64)#64 <= 1
 0 <= x(65)#65 <= 1
 0 <= x(66)#66 <= 1
 0 <= x(67)#67 <= 1
 0 <= x(68)#68 <= 1
 0 <= x(69)#69 <= 1
 0 <= x(70)#70 <= 1
 0 <= x(71)#71 <= 1
 0 <= x(72)#72 <= 1
 0 <= x(73)#73 <= 1
 0 <= x(74)#74 <= 1
 0 <= x(75)#75 <= 1
 0 <= x(76)#76 <= 1
 0 <= x(77)#77 <= 1
 0 <= x(78)#78 <= 1
 0 <= x(79)#79 <= 1
 0 <= x(80)#80 <= 1
 0 <= x(81)#81 <= 1
 0 <= x(82)#82 <= 1
 0 <= x(83)#83 <= 1
 0 <= x(84)#84 <= 1
 0 <= x(85)#85 <= 1
 0 <= x(86)#86 <= 1
 0 <= x(87)#87 <= 1
 0 <= x(88)#88 <= 1
 0 <= x(89)#89 <= 1
 0 <= x(90)#90 <= 1
 0 <= x(91)#91 <= 1
 0 <= x(92)#92 <= 1
 0 <= x(93)#93 <= 1
 0 <= x(94)#94 <= 1
 0 <= x(95)#95 <= 1
 0 <= x(96)#96 <= 1
 0 <= x(97)#97 <= 1
 0 <= x(98)#98 <= 1
 0 <= x(99)#99 <= 1
 0 <= x(100)#100 <= 1
 0 <= x(101)#101 <= 1
 0 <= x(102)#102 <= 1
 0 <= x(103)#103 <= 1
 0 <= x(104)#104 <= 1
 0 <= x(105)#105 <= 1
 0 <= x(106)#106 <= 1
 0 <= x(107)#107 <= 1
 0 <= x(108)#108 <= 1
 0 <= x(109)#109 <= 1
 0 <= x(110)#110 <= 1
 0 <= x(111)#111 <= 1
 0 <= x(112)#112 <= 1
 0 <= x(113)#113 <= 1
 0 <= x(114)#114 <= 1
 0 <= x(115)#115 <= 1
 0 <= x(116)#116 <= 1
 0 <= x(117)#117 <= 1
 0 <= x(118)#118 <= 1
 0 <= x(119)#119 <= 1
 0 <= x(120)#120 <= 1
 0 <= x(121)#121 <= 1
 0 <= x(122)#122 <= 1
 0 <= x(123)#123 <= 1
 0 <= x(124)#124 <= 1
 0 <= x(125)#125 <= 1
 0 <= x(126)#126 <= 1
 0 <= x(127)#127 <= 1
 0 <= x(128)#128 <= 1
 0 <= x(129)#129 <= 1
 0 <= x(130)#130 <= 1
 0 <= x(131)#131 <= 1
 0 <= x(132)#132 <= 1
 0 <= x(133)#133 <= 1
 0 <= x(134)#134 <= 1
 0 <= x(135)#135 <= 1
 0 <= x(136)#136 <= 1
 0 <= x(137)#137 <= 1
 0 <= x(138)#138 <= 1
 0 <= x(139)#139 <= 1
 0 <= x(140)#140 <= 1
 0 <= x(141)#141 <= 1
 0 <= x(142)#142 <= 1
 0 <= x(143)#143 <= 1
 0 <= x(144)#144 <= 1
 0 <= x(145)#145 <= 1
 0 <= x(146)#146 <= 1
 0 <= x(147)#147 <= 1
 0 <= x(148)#148 <= 1
 0 <= x(149)#149 <= 1
 0 <= x(150)#150 <= 1
 0 <= x(151)#151 <= 1
 0 <= x(152)#152 <= 1
 0 <= x(153)#153 <= 1
 0 <= x(154)#154 <= 1
 0 <= x(155)#155 <= 1
 0 <= x(156)#156 <= 1
 0 <= x(157)#157 <= 1
 0 <= x(158)#158 <= 1
 0 <= x(159)#159 <= 1
 0 <= x(160)#160 <= 1
 0 <= x(161)#161 <= 1
 0 <= x(162)#162 <= 1
 0 <= x(163)#163 <= 1
 0 <= x(164)#164 <= 1
 0 <= x(165)#165 <= 1
 0 <= x(166)#166 <= 1
 0 <= x(167)#167 <= 1
 0 <= x(168)#168 <= 1
 0 <= x(169)#169 <= 1
 0 <= x(170)#170 <= 1
 0 <= x(171)#171 <= 1
 0 <= x(172)#172 <= 1
 0 <= x(173)#173 <= 1
 0 <= x(174)#174 <= 1
 0 <= x(175)#175 <= 1
 0 <= x(176)#176 <= 1
 0 <= x(177)#177 <= 1
 0 <= x(178)#178 <= 1
 0 <= x(179)#179 <= 1
 0 <= x(180)#180 <= 1
 0 <= x(181)#181 <= 1
 0 <= x(182)#182 <= 1
 0 <= x(183)#183 <= 1
 0 <= x(184)#184 <= 1
 0 <= x(185)#185 <= 1
 0 <= x(186)#186 <= 1
 0 <= x(187)#187 <= 1
 0 <= x(188)#188 <= 1
 0 <= x(189)#189 <= 1
 0 <= x(190)#190 <= 1
 0 <= x(191)#191 <= 1
 0 <= x(192)#192 <= 1
 0 <= x(193)#193 <= 1
 0 <= x(194)#194 <= 1
 0 <= x(195)#195 <= 1
 0 <= x(196)#196 <= 1
 0 <= x(197)#197 <= 1
 0 <= x(198)#198 <= 1
 0 <= x(199)#199 <= 1
 0 <= x(200)#200 <= 1
 0 <= x(201)#201 <= 1
 0 <= x(202)#202 <= 1
 0 <= x(203)#203 <= 1
 0 <= x(204)#204 <= 1
 0 <= x(205)#205 <= 1
 0 <= x(206)#206 <= 1
 0 <= x(207)#207 <= 1
 0 <= x(208)#208 <= 1
 0 <= x(209)#209 <= 1
 0 <= x(210)#210 <= 1
 0 <= x(211)#211 <= 1
 0 <= x(212)#212 <= 1
 0 <= x(213)#213 <= 1
 0 <= x(214)#214 <= 1
 0 <= x(215)#215 <= 1
 0 <= x(216)#216 <= 1
 0 <= x(217)#217 <= 1
 0 <= x(218)#218 <= 1
 0 <= x(219)#219 <= 1
 0 <= x(220)#220 <= 1
 0 <= x(221)#221 <= 1
 0 <= x(222)#222 <= 1
 0 <= x(223)#223 <= 1
 0 <= x(224)#224 <= 1
 0 <= x(225)#225 <= 1
 0 <= x(226)#226 <= 1
 0 <= x(227)#227 <= 1
 0 <= x(228)#228 <= 1
 0 <= x(229)#229 <= 1
 0 <= x(230)#230 <= 1
 0 <= x(231)#231 <= 1
 0 <= x(232)#232 <= 1
 0 <= x(233)#233 <= 1
 0 <= x(234)#234 <= 1
 0 <= x(235)#235 <= 1
 0 <= x(236)#236 <= 1
 0 <= x(237)#237 <= 1
 0 <= x(238)#238 <= 1
 0 <= x(239)#239 <= 1
 0 <= x(240)#240 <= 1
 0 <= x(241)#241 <= 1
 0 <= x(242)#242 <= 1
 0 <= x(243)#243 <= 1
 0 <= x(244)#244 <= 1
 0 <= x(245)#245 <= 1
 0 <= x(246)#246 <= 1
 0 <= x(247)#247 <= 1
 0 <= x(248)#248 <= 1
 0 <= x(249)#249 <= 1
Generals
 x(0)#0  x(1)#1  x(2)#2  x(3)#3  x(4)#4  x(5)#5  x(6)#6  x(7)#7  x(8)#8 
 x(9)#9  x(10)#10  x(11)#11  x(12)#12  x(13)#13  x(14)#14  x(15)#15  x(16)#16 
 x(17)#17  x(18)#18  x(19)#19  x(20)#20  x(21)#21  x(22)#22  x(23)#23 
 x(24)#24  x(25)#25  x(26)#26  x(27)#27  x(28)#28  x(29)#29  x(30)#30 
 x(31)#31  x(32)#32  x(33)#33  x(34)#34  x(35)#35  x(36)#36  x(37)#37 
 x(38)#38  x(39)#39  x(40)#40  x(41)#41  x(42)#42  x(43)#43  x(44)#44 
 x(45)#45  x(46)#46  x(47)#47  x(48)#48  x(49)#49  x(50)#50  x(51)#51 
 x(52)#52  x(53)#53  x(54)#54  x(55)#55  x(56)#56  x(57)#57  x(58)#58 
 x(59)#59  x(60)#60  x(61)#61  x(62)#62  x(63)#63  x(64)#64  x(65)#65 
 x(66)#66  x(67)#67  x(68)#68  x(69)#69  x(70)#70  x(71)#71  x(72)#72 
 x(73)#73  x(74)#74  x(75)#75  x(76)#76  x(77)#77  x(78)#78  x(79)#79 
 x(80)#80  x(81)#81  x(82)#82  x(83)#83  x(84)#84  x(85)#85  x(86)#86 
 x(87)#87  x(88)#88  x(89)#89  x(90)#90  x(91)#91  x(92)#92  x(93)#93 
 x(94)#94  x(95)#95  x(96)#96  x(97)#97  x(98)#98  x(99)#99  x(100)#100 
 x(101)#101  x(102)#102  x(103)#103  x(104)#104  x(105)#105  x(106)#106 
 x(107)#107  x(108)#108  x(109)#109  x(110)#110  x(111)#111  x(112)#112 
 x(113)#113  x(114)#114  x(115)#115  x(116)#116  x(117)#117  x(118)#118 
 x(119)#119  x(120)#120  x(121)#121  x(122)#122  x(123)#123  x(124)#124 
 x(125)#125  x(126)#126  x(127)#127  x(128)#128  x(129)#129  x(130)#130 
 x(131)#131  x(132)#132  x(133)#133  x(134)#134  x(135)#135  x(136)#136 
 x(137)#137  x(138)#138  x(139)#139  x(140)#140  x(141)#141  x(142)#142 
 x(143)#143  x(144)#144  x(145)#145  x(146)#146  x(147)#147  x(148)#148 
 x(149)#149  x(150)#150  x(151)#151  x(152)#152  x(153)#153  x(154)#154 
 x(155)#155  x(156)#156  x(157)#157  x(158)#158  x(159)#159  x(160)#160 
 x(161)#161  x(162)#162  x(163)#163  x(164)#164  x(165)#165  x(166)#166 
 x(167)#167  x(168)#168  x(169)#169  x(170)#170  x(171)#171  x(172)#172 
 x(173)#173  x(174)#174  x(175)#175  x(176)#176  x(177)#177  x(178)#178 
 x(179)#179  x(180)#180  x(181)#181  x(182)#182  x(183)#183  x(184)#184 
 x(185)#185  x(186)#186  x(187)#187  x(188)#188  x(189)#189  x(190)#190 
 x(191)#191  x(192)#192  x(193)#193  x(194)#194  x(195)#195  x(196)#196 
 x(197)#197  x(198)#198  x(199)#199  x(200)#200  x(201)#201  x(202)#202 
 x(203)#203  x(204)#204  x(205)#205  x(206)#206  x(207)#207  x(208)#208 
 x(209)#209  x(210)#210  x(211)#211  x(212)#212  x(213)#213  x(214)#214 
 x(215)#215  x(216)#216  x(217)#217  x(218)#218  x(219)#219  x(220)#220 
 x(221)#221  x(222)#222  x(223)#223  x(224)#224  x(225)#225  x(226)#226 
 x(227)#227  x(228)#228  x(229)#229  x(230)#230  x(231)#231  x(232)#232 
 x(233)#233  x(234)#234  x(235)#235  x(236)#236  x(237)#237  x(238)#238 
 x(239)#239  x(240)#240  x(241)#241  x(242)#242  x(243)#243  x(244)#244 
 x(245)#245  x(246)#246  x(247)#247  x(248)#248  x(249)#249 
End
